
List of user-set options:

                                    Name   Value                used
                           compl_inf_tol = 1                     yes
                         constr_viol_tol = 1                     yes
                            dual_inf_tol = 1000                  yes
                           linear_solver = ma97                  yes
                              ma86_small = 1e-30                  no
                                  ma86_u = 0.0001                 no
                              ma97_order = best                  yes
                              ma97_small = 1e-30                 yes
                            ma97_switch1 = at_start              yes
                            ma97_switch2 = od_hd_reuse           yes
                                  ma97_u = 1e-06                 yes
                               ma97_umax = 0.5                   yes
                                max_iter = 1000                  yes
                    max_refinement_steps = 20                    yes
                    min_refinement_steps = 5                     yes
                                 mu_init = 1e-06                 yes
           mu_superlinear_decrease_power = 1.25                  yes
                   nlp_scaling_min_value = 1e-08                 yes
                        option_file_name = Preset_Case_889_pf.opt  yes
                             output_file = ./tmp/Preset_Case_889_pf.output  yes
                      print_user_options = yes                   yes
        required_infeasibility_reduction = 1                      no
                                     tol = 1e-08                 yes
                   warm_start_bound_frac = 1e-20                 yes
                   warm_start_bound_push = 1e-20                 yes
                   warm_start_init_point = yes                   yes
              warm_start_mult_bound_push = 1e-20                 yes
                warm_start_mult_init_max = 1e+40                 yes
             warm_start_slack_bound_frac = 1e-20                 yes
             warm_start_slack_bound_push = 1e-20                 yes

******************************************************************************
This program contains Ipopt, a library for large-scale nonlinear optimization.
 Ipopt is released as open source code under the Eclipse Public License (EPL).
         For more information visit http://projects.coin-or.org/Ipopt
******************************************************************************

This is Ipopt version 3.12.10, running with linear solver ma97.

Number of nonzeros in equality constraint Jacobian...:   123443
Number of nonzeros in inequality constraint Jacobian.:      213
Number of nonzeros in Lagrangian Hessian.............:    49069

Total number of variables............................:    31591
                     variables with only lower bounds:    12912
                variables with lower and upper bounds:    15130
                     variables with only upper bounds:        0
Total number of equality constraints.................:    31483
Total number of inequality constraints...............:       25
        inequality constraints with only lower bounds:        4
   inequality constraints with lower and upper bounds:        0
        inequality constraints with only upper bounds:       21

iter    objective    inf_pr   inf_du lg(mu)  ||d||  lg(rg) alpha_du alpha_pr  ls
   0 -5.3465042e+00 4.05e-03 1.02e+00  -6.0 0.00e+00    -  0.00e+00 0.00e+00   0
   1 -5.3545276e+00 5.41e+00 2.62e+01  -6.0 4.59e+05    -  6.80e-05 7.79e-04h  1
   2 -5.3558813e+00 5.41e+00 2.80e+01  -6.0 2.31e+05    -  8.93e-03 2.47e-04f  1
   3 -5.3550106e+00 5.41e+00 2.67e+01  -6.0 1.55e+04    -  5.74e-07 9.02e-04h  1
   4 -5.3537227e+00 5.40e+00 1.30e+05  -6.0 1.45e+03  -4.0 5.63e-06 1.09e-03h  1
   5 -5.3533367e+00 5.40e+00 1.29e+05  -6.0 7.85e+03  -4.5 1.44e-03 2.27e-04h  1
   6 -5.3505671e+00 5.34e+00 1.29e+05  -6.0 4.43e+02  -5.0 7.41e-04 1.18e-02h  1
   7 -5.3459930e+00 5.20e+00 1.18e+05  -6.0 4.42e+02  -5.4 1.02e-01 2.55e-02h  3
   8 -5.3457673e+00 5.19e+00 1.14e+05  -6.0 4.36e+02  -5.9 4.20e-02 3.06e-03h  8
   9 -5.3486953e+00 3.86e+00 1.00e+05  -6.0 4.53e+02  -6.4 6.62e-02 2.57e-01h  1
iter    objective    inf_pr   inf_du lg(mu)  ||d||  lg(rg) alpha_du alpha_pr  ls
  10 -5.4060896e+00 3.59e+00 6.75e+04  -6.0 6.75e+03    -  3.63e-01 7.29e-02h  1
  11 -5.4015849e+00 3.56e+00 6.72e+04  -6.0 2.37e+03  -6.9 1.32e-04 2.73e-02h  4
  12 -5.4245350e+00 3.45e+00 5.83e+04  -6.0 9.88e+02  -6.4 3.22e-01 3.18e-02h  1
  13 -5.4653809e+00 3.15e+00 5.60e+04  -6.0 8.22e+02  -6.9 1.22e-02 8.74e-02h  1
  14 -5.4713321e+00 3.11e+00 5.33e+04  -6.0 1.74e+03  -7.4 6.70e-02 1.09e-02h  1
  15 -5.7938669e+00 4.95e+00 3.27e+04  -6.0 3.18e+02  -7.0 1.33e-01 7.22e-01h  1
  16 -5.8144456e+00 3.96e+00 2.01e+04  -6.0 3.27e+02  -7.4 6.19e-01 2.24e-01h  1
  17 -5.8853771e+00 1.79e+00 4.04e+03  -6.0 3.39e+02  -7.0 5.88e-01 8.92e-01h  1
  18 -5.8852291e+00 1.77e+00 3.75e+03  -6.0 6.18e+03  -7.5 2.63e-02 9.62e-03h  6
  19 -5.8417502e+00 1.80e+00 2.56e+02  -6.0 1.45e+02  -7.1 9.56e-01 1.00e+00h  1
iter    objective    inf_pr   inf_du lg(mu)  ||d||  lg(rg) alpha_du alpha_pr  ls
  20 -5.8456819e+00 1.93e+00 1.23e+04  -6.0 1.31e+03  -7.5 7.19e-01 1.13e-01H  1
  21 -5.8490112e+00 1.83e+00 1.13e+04  -6.0 5.78e+03    -  1.07e-03 4.01e-02h  4
  22 -5.8492907e+00 2.11e-01 7.31e+02  -6.0 9.28e+01  -7.1 8.89e-01 1.00e+00h  1
  23 -5.8608195e+00 2.73e+00 3.79e+03  -6.0 2.66e+02  -7.6 9.43e-01 1.00e+00h  1
  24 -5.8691610e+00 3.28e-01 1.38e+04  -6.0 9.75e+01  -7.2 1.00e+00 9.33e-01h  1
  25r-5.8691610e+00 3.28e-01 1.00e+03  -0.5 0.00e+00  -6.7 0.00e+00 3.16e-07R  3
  26r-5.8789685e+00 3.26e-01 1.00e+03  -0.5 2.05e+04    -  1.34e-05 3.96e-06f  1
  27 -5.8781095e+00 3.04e-01 1.23e+06  -6.0 5.73e+00    -  8.33e-01 6.86e-02h  1
  28 -5.8741183e+00 2.00e-01 6.22e+06  -6.0 5.42e+00    -  6.86e-02 3.45e-01h  1
  29 -5.8671040e+00 1.68e-03 3.15e+02  -6.0 3.78e+00    -  5.47e-01 1.00e+00h  1
iter    objective    inf_pr   inf_du lg(mu)  ||d||  lg(rg) alpha_du alpha_pr  ls
  30 -5.8677794e+00 1.07e-04 5.73e+00  -6.0 1.40e+00    -  9.87e-01 1.00e+00h  1
  31 -5.8764140e+00 1.19e-01 4.68e+01  -6.0 7.09e+01    -  9.14e-01 7.66e-01h  1
  32 -5.8865311e+00 3.51e-01 2.32e+04  -6.0 7.35e+02    -  6.42e-01 1.00e+00H  1
  33 -5.8923306e+00 4.60e-01 2.12e+04  -6.0 6.54e+02  -7.2 3.02e-01 8.64e-02h  1
  34 -5.9005784e+00 1.18e+00 1.78e+03  -6.0 2.22e+02  -7.7 3.78e-01 9.16e-01h  1
  35 -5.9021383e+00 1.17e+00 1.59e+03  -6.0 5.79e+02  -7.3 9.32e-03 1.10e-01h  1
  36 -5.9454577e+00 4.60e+01 3.92e+03  -6.0 1.71e+03  -7.7 9.42e-02 1.00e+00f  1
  37 -5.9082646e+00 3.95e-01 1.86e+03  -6.0 1.28e+02  -6.4 9.65e-02 1.00e+00h  1
  38 -5.9367083e+00 1.36e+00 2.17e+01  -6.0 2.73e+02  -6.9 9.19e-01 1.00e+00h  1
  39 -5.9625004e+00 2.86e+00 6.94e+01  -6.0 1.03e+04    -  8.62e-02 8.55e-02h  1
iter    objective    inf_pr   inf_du lg(mu)  ||d||  lg(rg) alpha_du alpha_pr  ls
  40 -5.9631318e+00 2.62e+00 6.38e+01  -6.0 2.28e+02  -7.4 1.02e-01 8.41e-02h  1
  41 -5.9674967e+00 2.20e+00 1.20e+02  -6.0 8.76e+02  -7.9 2.49e-01 1.67e-01h  1
  42 -5.9817322e+00 6.52e+00 7.73e+03  -6.0 1.14e+03    -  8.99e-02 5.57e-01h  1
  43 -5.9819423e+00 6.23e+00 1.60e+04  -6.0 5.79e+02    -  5.77e-01 4.61e-02h  1
  44 -5.9819155e+00 5.88e+00 3.59e+05  -6.0 1.76e+02  -4.7 4.23e-03 5.72e-02h  1
  45 -5.9767694e+00 2.57e-02 3.85e+04  -6.0 2.89e+01  -5.2 9.17e-01 1.00e+00h  1
  46 -5.9762241e+00 2.28e-03 2.12e+05  -6.0 8.88e+00  -5.7 4.93e-01 1.00e+00h  1
  47 -5.9762404e+00 2.09e-03 4.50e+03  -6.0 1.18e+01  -6.1 1.00e+00 9.87e-02h  1
  48 -5.9780008e+00 1.13e-01 3.39e+02  -6.0 6.41e+01  -6.6 1.00e+00 9.73e-01f  1
  49 -5.9851861e+00 1.30e+00 1.01e+01  -6.0 2.27e+02  -7.1 9.97e-01 9.34e-01h  1
iter    objective    inf_pr   inf_du lg(mu)  ||d||  lg(rg) alpha_du alpha_pr  ls
  50 -5.9860915e+00 1.25e+00 1.12e+02  -6.0 4.53e+03    -  4.02e-02 4.08e-02h  1
  51 -5.9956851e+00 1.17e+00 1.70e+05  -6.0 2.04e+02  -6.7 6.05e-02 1.00e+00h  1
  52 -6.0043721e+00 5.97e-01 2.39e+03  -6.0 1.43e+02  -7.2 6.92e-01 1.00e+00h  1
  53 -6.0055963e+00 2.08e-01 8.31e+02  -6.0 5.23e+01  -6.7 7.68e-01 1.00e+00h  1
  54 -6.0077134e+00 5.37e-01 4.55e+02  -6.0 1.90e+02  -7.2 2.61e-01 4.35e-01h  1
  55 -6.0065047e+00 5.12e-01 3.52e+02  -6.0 1.26e+02  -6.8 4.10e-01 2.50e-01h  3
  56 -6.0115106e+00 5.89e-01 2.18e+02  -6.0 4.83e+02  -7.3 2.88e-01 3.69e-01h  1
  57 -6.0169352e+00 3.80e-01 1.26e+02  -6.0 1.33e+02  -6.8 1.00e+00 5.05e-01h  1
  58 -6.0253147e+00 9.57e-01 3.35e+03  -6.0 5.40e+02  -7.3 4.31e-01 3.87e-01h  1
  59 -6.0358501e+00 1.42e+00 2.73e+04  -6.0 5.28e+03  -7.8 1.35e-03 4.14e-02h  1
iter    objective    inf_pr   inf_du lg(mu)  ||d||  lg(rg) alpha_du alpha_pr  ls
  60 -6.1137433e+00 2.28e+01 1.46e+04  -6.0 6.27e+03  -8.3 5.06e-02 2.91e-01h  1
  61 -6.1015365e+00 1.78e+01 5.27e+03  -6.0 3.96e+03    -  2.10e-01 3.50e-01h  1
  62 -6.1028291e+00 1.27e+01 7.72e+03  -6.0 8.62e+02    -  2.00e-05 3.32e-01h  1
  63 -6.1024196e+00 6.96e+00 1.32e+07  -6.0 6.20e+02    -  9.46e-04 4.60e-01h  1
  64 -6.0966371e+00 3.68e+00 5.40e+03  -6.0 4.93e+02    -  4.89e-01 1.00e+00h  1
  65 -6.0966448e+00 2.99e+00 4.14e+03  -6.0 4.33e+02    -  5.94e-01 2.33e-01h  1
  66 -6.0971178e+00 2.68e+00 9.04e+02  -6.0 4.13e+02    -  7.70e-01 1.00e+00h  1
  67 -6.0976470e+00 2.16e+00 1.64e+04  -6.0 3.59e+02    -  9.95e-01 2.41e-01h  1
  68 -6.0999457e+00 2.01e+00 6.45e+03  -6.0 3.53e+02    -  5.56e-01 1.00e+00h  1
  69 -6.1009356e+00 1.58e+00 6.40e+04  -6.0 3.49e+02    -  9.26e-01 3.07e-01h  1
iter    objective    inf_pr   inf_du lg(mu)  ||d||  lg(rg) alpha_du alpha_pr  ls
  70 -6.1036850e+00 1.78e+00 1.82e+04  -6.0 3.87e+02    -  4.20e-01 7.54e-01h  1
  71r-6.1036850e+00 1.78e+00 1.00e+03   0.0 0.00e+00    -  0.00e+00 4.76e-07R  4
  72r-6.1194184e+00 1.78e+00 1.00e+03   0.0 9.65e+03    -  8.33e-06 1.75e-06f  1
  73 -6.1175706e+00 1.57e+00 1.11e+06  -6.0 6.92e+00    -  8.04e-01 1.15e-01h  1
  74 -6.1132795e+00 1.09e+00 2.89e+06  -6.0 6.40e+00    -  1.15e-01 3.03e-01h  1
  75 -6.1034017e+00 1.20e-03 1.34e+02  -6.0 4.48e+00    -  6.72e-01 1.00e+00h  1
  76 -6.1035692e+00 2.49e-04 7.86e+00  -6.0 4.46e-01    -  9.27e-01 1.00e+00h  1
  77 -6.1038496e+00 1.45e-03 4.90e-01  -6.0 1.21e+00    -  9.66e-01 1.00e+00h  1
  78 -6.1037316e+00 1.78e-04 6.24e-01  -6.0 2.02e+01    -  9.54e-01 1.00e+00H  1
  79 -6.1038256e+00 3.85e-04 5.00e-01  -6.0 2.51e+02    -  8.86e-01 1.00e+00H  1
iter    objective    inf_pr   inf_du lg(mu)  ||d||  lg(rg) alpha_du alpha_pr  ls
  80 -6.1038295e+00 1.66e-05 2.60e-02  -6.0 4.00e+01    -  9.98e-01 1.00e+00H  1
  81 -6.1038293e+00 6.13e-05 1.47e-05  -6.0 1.99e+00    -  1.00e+00 1.00e+00h  1
  82 -6.1038293e+00 2.85e-10 1.83e-10  -6.0 2.93e-03    -  1.00e+00 1.00e+00h  1
  83 -6.1038898e+00 7.20e-03 9.45e+01  -7.5 4.28e+01    -  9.55e-01 6.29e-01h  1
  84 -6.1039058e+00 3.02e-03 1.50e+01  -7.5 1.63e+01    -  1.00e+00 8.60e-01h  1
  85 -6.1039057e+00 4.89e-05 2.14e-02  -7.5 2.26e+00    -  1.00e+00 1.00e+00h  1
  86 -6.1039057e+00 4.26e-10 1.03e-09  -7.5 1.49e-03    -  1.00e+00 1.00e+00h  1
  87 -6.1039073e+00 1.41e-05 6.33e-01  -9.0 1.38e+00    -  9.25e-01 8.56e-01h  1
  88 -6.1039075e+00 3.99e-07 4.11e-01  -9.0 1.99e-01    -  8.94e-01 1.00e+00f  1
  89 -6.1039075e+00 2.84e-10 2.19e-08  -9.0 4.54e-05    -  1.00e+00 1.00e+00h  1
iter    objective    inf_pr   inf_du lg(mu)  ||d||  lg(rg) alpha_du alpha_pr  ls
  90 -6.1039075e+00 2.85e-10 4.24e-10  -9.0 8.69e-06    -  1.00e+00 1.00e+00h  1

Number of Iterations....: 90

                                   (scaled)                 (unscaled)
Objective...............:  -4.7686777682376436e+00   -6.1039075433441834e+00
Dual infeasibility......:   4.2419818488257750e-10    5.4297367664969920e-10
Constraint violation....:   2.8528399933190618e-10    2.8528399933190618e-10
Complementarity.........:   9.2206280656390096e-10    1.1802403924017933e-09
Overall NLP error.......:   9.2206280656390096e-10    1.1802403924017933e-09


Number of objective function evaluations             = 135
Number of objective gradient evaluations             = 91
Number of equality constraint evaluations            = 135
Number of inequality constraint evaluations          = 135
Number of equality constraint Jacobian evaluations   = 93
Number of inequality constraint Jacobian evaluations = 93
Number of Lagrangian Hessian evaluations             = 90
Total CPU secs in IPOPT (w/o function evaluations)   =    243.849
Total CPU secs in NLP function evaluations           =      3.427

EXIT: Optimal Solution Found.
